%chk=D:\Gaussian 09w\H2.chk
# opt b3lyp/cc-pvqz geom=connectivity

Title Card Required

0 1
 H                 -2.02068976    1.44827584    0.00000000
 H                 -2.62068976    1.44827584    0.00000000

 1 2 1.0
 2

